<?xml version = "1.0" encoding="UTF-8" standalone="yes"?>
<CPLEXSolution version="1.2">
 <header
   problemName="IloCplex"
   solutionName="p0"
   solutionIndex="-1"
   objectiveValue="-5033650946"
   solutionTypeValue="3"
   solutionTypeString="primal"
   solutionStatusValue="127"
   solutionStatusString="integer feasible solution"
   solutionMethodString="mip"
   primalFeasible="0"
   dualFeasible="0"
   writeLevel="3"/>
 <quality
   epInt="1.0000000000000001e-05"
   epRHS="9.9999999999999995e-07"
   maxIntInfeas="0"
   maxPrimalInfeas="0"
   maxX="1"
   maxSlack="1"/>
 <variables>
  <variable name="w0_12" index="12" value="1"/>
  <variable name="w0_13" index="13" value="1"/>
  <variable name="w1_12" index="27" value="1"/>
  <variable name="w1_13" index="28" value="1"/>
  <variable name="w18_12" index="282" value="1"/>
  <variable name="w18_13" index="283" value="1"/>
  <variable name="w19_12" index="297" value="1"/>
  <variable name="w19_13" index="298" value="1"/>
  <variable name="k0" index="300" value="1"/>
  <variable name="k1" index="301" value="1"/>
  <variable name="k18" index="318" value="1"/>
  <variable name="k19" index="319" value="1"/>
  <variable name="x0_58" index="378" value="1"/>
  <variable name="x1_34" index="504" value="1"/>
  <variable name="x2_6" index="626" value="1"/>
  <variable name="x3_80" index="850" value="1"/>
  <variable name="x4_109" index="1029" value="1"/>
  <variable name="x5_135" index="1205" value="1"/>
  <variable name="x6_15" index="1235" value="1"/>
  <variable name="x7_149" index="1519" value="1"/>
  <variable name="x8_100" index="1620" value="1"/>
  <variable name="x9_113" index="1783" value="1"/>
  <variable name="x10_99" index="1919" value="1"/>
  <variable name="x11_59" index="2029" value="1"/>
  <variable name="x12_71" index="2191" value="1"/>
  <variable name="x13_67" index="2337" value="1"/>
  <variable name="x14_4" index="2424" value="1"/>
  <variable name="x15_132" index="2702" value="1"/>
  <variable name="x16_10" index="2730" value="1"/>
  <variable name="x17_14" index="2884" value="1"/>
  <variable name="x18_65" index="3085" value="1"/>
  <variable name="x19_117" index="3287" value="1"/>
  <variable name="x20_13" index="3333" value="1"/>
  <variable name="x21_40" index="3510" value="1"/>
  <variable name="x22_0" index="3620" value="1"/>
  <variable name="x23_81" index="3851" value="1"/>
  <variable name="x24_123" index="4043" value="1"/>
  <variable name="x25_69" index="4139" value="1"/>
  <variable name="x26_37" index="4257" value="1"/>
  <variable name="x27_72" index="4442" value="1"/>
  <variable name="x28_133" index="4653" value="1"/>
  <variable name="x29_114" index="4784" value="1"/>
  <variable name="x30_64" index="4884" value="1"/>
  <variable name="x31_148" index="5118" value="1"/>
  <variable name="x32_142" index="5262" value="1"/>
  <variable name="x33_143" index="5413" value="1"/>
  <variable name="x34_125" index="5545" value="1"/>
  <variable name="x35_130" index="5700" value="1"/>
  <variable name="x36_46" index="5766" value="1"/>
  <variable name="x37_38" index="5908" value="1"/>
  <variable name="x38_28" index="6048" value="1"/>
  <variable name="x39_23" index="6193" value="1"/>
  <variable name="x40_127" index="6447" value="1"/>
  <variable name="x41_39" index="6509" value="1"/>
  <variable name="x42_138" index="6758" value="1"/>
  <variable name="x43_84" index="6854" value="1"/>
  <variable name="x44_83" index="7003" value="1"/>
  <variable name="x45_141" index="7211" value="1"/>
  <variable name="x46_68" index="7288" value="1"/>
  <variable name="x47_55" index="7425" value="1"/>
  <variable name="x48_66" index="7586" value="1"/>
  <variable name="x49_137" index="7807" value="1"/>
  <variable name="x50_56" index="7876" value="1"/>
  <variable name="x51_50" index="8020" value="1"/>
  <variable name="x52_17" index="8137" value="1"/>
  <variable name="x53_115" index="8385" value="1"/>
  <variable name="x54_134" index="8554" value="1"/>
  <variable name="x55_41" index="8611" value="1"/>
  <variable name="x56_11" index="8731" value="1"/>
  <variable name="x57_104" index="8974" value="1"/>
  <variable name="x58_57" index="9077" value="1"/>
  <variable name="x59_1" index="9171" value="1"/>
  <variable name="x60_51" index="9371" value="1"/>
  <variable name="x61_95" index="9565" value="1"/>
  <variable name="x62_31" index="9651" value="1"/>
  <variable name="x63_21" index="9791" value="1"/>
  <variable name="x64_63" index="9983" value="1"/>
  <variable name="x65_42" index="10112" value="1"/>
  <variable name="x66_54" index="10274" value="1"/>
  <variable name="x67_36" index="10406" value="1"/>
  <variable name="x68_3" index="10523" value="1"/>
  <variable name="x69_136" index="10806" value="1"/>
  <variable name="x70_89" index="10909" value="1"/>
  <variable name="x71_26" index="10996" value="1"/>
  <variable name="x72_88" index="11208" value="1"/>
  <variable name="x73_101" index="11371" value="1"/>
  <variable name="x74_147" index="11567" value="1"/>
  <variable name="x75_8" index="11578" value="1"/>
  <variable name="x76_85" index="11805" value="1"/>
  <variable name="x77_93" index="11963" value="1"/>
  <variable name="x78_49" index="12069" value="1"/>
  <variable name="x79_32" index="12202" value="1"/>
  <variable name="x80_47" index="12367" value="1"/>
  <variable name="x81_35" index="12505" value="1"/>
  <variable name="x82_111" index="12731" value="1"/>
  <variable name="x83_62" index="12832" value="1"/>
  <variable name="x84_97" index="13017" value="1"/>
  <variable name="x85_44" index="13114" value="1"/>
  <variable name="x86_43" index="13263" value="1"/>
  <variable name="x87_110" index="13480" value="1"/>
  <variable name="x88_60" index="13580" value="1"/>
  <variable name="x89_86" index="13756" value="1"/>
  <variable name="x90_33" index="13853" value="1"/>
  <variable name="x91_73" index="14043" value="1"/>
  <variable name="x92_27" index="14147" value="1"/>
  <variable name="x93_120" index="14390" value="1"/>
  <variable name="x94_9" index="14429" value="1"/>
  <variable name="x95_126" index="14696" value="1"/>
  <variable name="x96_105" index="14825" value="1"/>
  <variable name="x97_116" index="14986" value="1"/>
  <variable name="x98_82" index="15102" value="1"/>
  <variable name="x99_90" index="15260" value="1"/>
  <variable name="x100_122" index="15442" value="1"/>
  <variable name="x101_102" index="15572" value="1"/>
  <variable name="x102_76" index="15696" value="1"/>
  <variable name="x103_118" index="15888" value="1"/>
  <variable name="x104_75" index="15995" value="1"/>
  <variable name="x105_128" index="16198" value="1"/>
  <variable name="x106_107" index="16327" value="1"/>
  <variable name="x107_2" index="16372" value="1"/>
  <variable name="x108_146" index="16666" value="1"/>
  <variable name="x109_87" index="16757" value="1"/>
  <variable name="x110_112" index="16932" value="1"/>
  <variable name="x111_79" index="17049" value="1"/>
  <variable name="x112_124" index="17244" value="1"/>
  <variable name="x113_91" index="17361" value="1"/>
  <variable name="x114_103" index="17523" value="1"/>
  <variable name="x115_74" index="17644" value="1"/>
  <variable name="x116_106" index="17826" value="1"/>
  <variable name="x117_78" index="17948" value="1"/>
  <variable name="x118_19" index="18039" value="1"/>
  <variable name="x119_52" index="18222" value="1"/>
  <variable name="x120_77" index="18397" value="1"/>
  <variable name="x121_96" index="18566" value="1"/>
  <variable name="x122_92" index="18712" value="1"/>
  <variable name="x123_131" index="18901" value="1"/>
  <variable name="x124_121" index="19041" value="1"/>
  <variable name="x125_144" index="19214" value="1"/>
  <variable name="x126_140" index="19360" value="1"/>
  <variable name="x127_24" index="19394" value="1"/>
  <variable name="x128_119" index="19639" value="1"/>
  <variable name="x129_108" index="19778" value="1"/>
  <variable name="x130_129" index="19949" value="1"/>
  <variable name="x131_70" index="20040" value="1"/>
  <variable name="x132_29" index="20149" value="1"/>
  <variable name="x133_12" index="20282" value="1"/>
  <variable name="x134_61" index="20481" value="1"/>
  <variable name="x135_25" index="20595" value="1"/>
  <variable name="x136_139" index="20859" value="1"/>
  <variable name="x137_30" index="20900" value="1"/>
  <variable name="x138_18" index="21038" value="1"/>
  <variable name="x139_16" index="21186" value="1"/>
  <variable name="x140_145" index="21465" value="1"/>
  <variable name="x141_94" index="21564" value="1"/>
  <variable name="x142_20" index="21640" value="1"/>
  <variable name="x143_5" index="21775" value="1"/>
  <variable name="x144_22" index="21942" value="1"/>
  <variable name="x145_53" index="22123" value="1"/>
  <variable name="x146_98" index="22318" value="1"/>
  <variable name="x147_48" index="22418" value="1"/>
  <variable name="x148_45" index="22565" value="1"/>
  <variable name="x149_7" index="22677" value="1"/>
  <variable name="u12" index="22832" value="1"/>
  <variable name="u13" index="22833" value="1"/>
 </variables>
</CPLEXSolution>
